AES/1_4_4/ssaes_r1-20_c4_rw1_e4_f0_k1-20_aes_min_box_aes_mc_bidirectional/ExperimentMinisat_r5_k19cnf_2011-11-18-084305/Result
WARNING: for repeatability, setting FPU to use double precision
============================[ Problem Statistics ]=============================
|                                                                             |
|  Number of variables:           408                                         |
|  Number of clauses:            1574                                         |
|  Parse time:                   0.00 s                                       |
|  Eliminated clauses:           0.00 Mb                                      |
|  Simplification time:          0.00 s                                       |
|                                                                             |
=============================[ Search Statistics ]==============================
| Conflicts  |          ORIGINAL         |          LEARNT          | Progress |
|            |    Vars  Clauses Literals |    Limit  Clauses Lit/Cl |          |
================================================================================
|        100 |     260     1158     3842 |      424      100     14 | 12.746 % |
|        250 |     260     1158     3842 |      467      250     13 | 12.746 % |
|        475 |     260     1158     3842 |      513      475     12 | 12.746 % |
|        812 |     260     1158     3842 |      565      519     11 | 12.746 % |
|       1318 |     260     1158     3842 |      621      383      9 | 12.746 % |
|       2077 |     260     1158     3842 |      683      461      8 | 12.746 % |
===============================================================================
restarts              : 14
conflicts             : 2326           (72699 /sec)
decisions             : 2952           (0.00 % random) (92264 /sec)
propagations          : 127084         (3971996 /sec)
conflict literals     : 28829          (20.67 % deleted)
Memory used           : 8.00 MB
CPU time              : 0.031995 s

SATISFIABLE
